(set-option :print-success false)
(set-logic QF_UF)
(declare-sort x20 0)
(declare-sort x109 0)
(declare-fun x87 (x109 x109) x109)
(declare-fun x102 () x109)
(declare-fun x125 () x109)
(declare-fun x56 () x109)
(declare-fun x37 () x109)
(declare-fun x121 () x109)
(assert (let ((x107 (x87 x56 x37)) (x43 (x87 x37 x56)) (x127 (x87 x37 x121)) (x15 (x87 x37 x37)) (x7 (x87 x102 x121)) (x86 (x87 x102 x37)) (x53 (x87 x125 x125)) (x13 (x87 x125 x102)) (x81 (x87 x102 x56)) (x40 (x87 x56 x125)) (x113 (x87 x102 x102)) (x94 (x87 x56 x121)) (x140 (x87 x102 x125)) (x21 (x87 x121 x102)) (x48 (x87 x121 x121)) (x57 (x87 x121 x37)) (x155 (x87 x121 x125)) (x91 (x87 x37 x125)) (x129 (x87 x125 x37)) (x126 (x87 x56 x102)) (x51 (x87 x37 x102)) (x147 (x87 x121 x56)) (x62 (x87 x56 x56)) (x66 (x87 x125 x121)) (x114 (x87 x125 x56))) (let ((x123 (= x121 x62)) (x119 (= x37 x66)) (x88 (= x121 x53)) (x25 (= x37 x81)) (x5 (= x81 x102)) (x150 (= x51 x37)) (x105 (= x107 x125)) (x93 (= x102 x40)) (x32 (= x13 x125)) (x115 (= x147 x102)) (x95 (= x107 x121)) (x85 (= x56 x15)) (x52 (= x102 x57)) (x68 (= x129 x125)) (x146 (= x21 x56)) (x58 (= x121 x40)) (x77 (= x121 x66)) (x2 (= x121 x91)) (x27 (= x37 x48)) (x154 (= x125 x57)) (x39 (= x56 x48)) (x128 (= x56 x53)) (x70 (= x37 x94)) (x12 (= x121 x129)) (x28 (= x40 x56)) (x139 (= x66 x56)) (x16 (= x56 x127)) (x64 (= x56 x107)) (x22 (= x94 x125)) (x73 (= x62 x56)) (x55 (= x7 x102)) (x84 (= x129 x102)) (x149 (= x125 x62)) (x122 (= x94 x121)) (x54 (= x147 x121)) (x153 (= x86 x121)) (x158 (= x114 x37)) (x141 (= x102 x155)) (x10 (= x140 x102)) (x42 (= x56 x91)) (x151 (= x66 x102)) (x67 (= x57 x56)) (x60 (= x102 x113)) (x41 (= x43 x56)) (x6 (= x57 x37)) (x157 (= x86 x56)) (x82 (= x102 x15)) (x59 (= x102 x13)) (x92 (= x121 x114)) (x45 (= x43 x37)) (x106 (= x40 x37)) (x63 (= x56 x129)) (x120 (= x125 x140)) (x135 (= x53 x37)) (x110 (= x125 x155)) (x156 (= x48 x125)) (x71 (= x121 x48)) (x101 (= x126 x102)) (x61 (= x121 x7)) (x144 (= x66 x125)) (x36 (= x62 x102)) (x99 (= x91 x102)) (x3 (= x40 x125)) (x80 (= x51 x56)) (x112 (= x114 x102)) (x136 (= x81 x125)) (x75 (= x102 x48)) (x46 (= x147 x125)) (x17 (= x113 x125)) (x74 (= x107 x37)) (x132 (= x140 x37)) (x1 (= x121 x15)) (x100 (= x121 x113)) (x116 (= x7 x125)) (x49 (= x102 x51)) (x9 (= x21 x121)) (x23 (= x125 x43)) (x131 (= x127 x102)) (x14 (= x56 x81)) (x76 (= x102 x94)) (x79 (= x147 x56)) (x133 (= x121 x155)) (x72 (= x125 x126)) (x44 (= x125 x21)) (x142 (= x43 x121)) (x33 (= x155 x37)) (x104 (= x37 x113)) (x134 (= x102 x43)) (x89 (= x37 x21)) (x34 (= x127 x125)) (x35 (= x37 x129)) (x31 (= x121 x51)) (x83 (= x56 x114)) (x143 (= x125 x86)) (x38 (= x13 x56)) (x4 (= x53 x102)) (x130 (= x86 x37)) (x152 (= x140 x56)) (x111 (= x13 x121)) (x19 (= x56 x113)) (x145 (= x107 x102)) (x8 (= x140 x121)) (x108 (= x37 x126)) (x18 (= x102 x86)) (x96 (= x53 x125)) (x118 (= x37 x147)) (x98 (= x56 x155)) (x97 (= x7 x56)) (x50 (= x127 x121)) (x65 (= x37 x15)) (x148 (= x37 x127)) (x30 (= x15 x125)) (x69 (= x121 x126)) (x138 (= x125 x51)) (x137 (= x125 x91)) (x117 (= x121 x57)) (x90 (= x56 x126)) (x24 (= x114 x125)) (x78 (= x62 x37)) (x26 (= x37 x91)) (x103 (= x13 x37)) (x11 (= x102 x21)) (x29 (= x7 x37)) (x47 (= x94 x56)) (x124 (= x81 x121))) (and (and (and (and (and (and (and (or (or (or x111 (or x69 x100)) x9) x31) (or (or (or x8 (or x124 x100)) x61) x153)) (and (and (or (or x116 (or (or x136 x17) x120)) x143) (or (or x44 (or (or x17 x72) x32)) x138)) (and (and (or x157 (or x97 (or (or x19 x14) x152))) (or (or (or (or x19 x90) x38) x146) x80)) (and (or (or x11 (or x59 (or x101 x60))) x49) (or (or x55 (or (or x5 x60) x10)) x18))))) (and (or (or (or x132 (or x104 x25)) x29) x130) (or (or x89 (or (or x108 x104) x103)) x150))) (and (and (or (or x70 (or x106 (or x78 x108))) x74) (or (or (or (or x25 x78) x158) x118) x45)) (and (and (and (or (or x46 (or (or x149 x136) x24)) x23) (or (or (or (or x149 x72) x3) x22) x105)) (and (and (or (or (or x112 (or x5 x36)) x115) x134) (or (or (or x93 (or x101 x36)) x76) x145)) (and (or x64 (or x47 (or x28 (or x73 x90)))) (or x41 (or (or x83 (or x73 x14)) x79))))) (and (or x95 (or x122 (or (or x69 x123) x58))) (or x142 (or (or (or x123 x124) x92) x54)))))) (and (and (or (or (or x135 (or x106 x132)) x33) x26) (or (or x119 (or (or x158 x103) x135)) x35)) (and (and (and (and (or (or x98 (or (or x152 x28) x128)) x42) (or (or (or x128 (or x38 x83)) x139) x63)) (and (or x99 (or (or (or x10 x93) x4) x141)) (or (or (or (or x112 x59) x4) x151) x84))) (and (or x68 (or (or (or x24 x32) x96) x144)) (or (or x110 (or (or x120 x3) x96)) x137))) (and (or (or (or (or x8 x58) x88) x133) x2) (or (or (or x88 (or x111 x92)) x77) x12))))) (and (and (or (or (or x33 (or x118 x89)) x27) x6) (or x148 (or x27 (or (or x29 x70) x119)))) (and (and (and (or x154 (or x156 (or x110 (or x46 x44)))) (or (or (or x144 (or x116 x22)) x156) x34)) (and (and (or x67 (or x39 (or (or x146 x79) x98))) (or (or x39 (or x139 (or x47 x97))) x16)) (and (or x52 (or x75 (or x141 (or x11 x115)))) (or x131 (or (or x151 (or x55 x76)) x75))))) (and (or (or (or x133 (or x54 x9)) x71) x117) (or x50 (or x71 (or x77 (or x61 x122)))))))) (and (and (or x65 (or (or (or x74 x130) x35) x6)) (or x65 (or x148 (or (or x150 x45) x26)))) (and (and (or (or (or (or x31 x142) x2) x50) x1) (or x1 (or x117 (or (or x153 x95) x12)))) (and (and (or x30 (or (or (or x105 x143) x68) x154)) (or (or (or (or x23 x138) x137) x34) x30)) (and (and (or x82 (or (or (or x18 x145) x84) x52)) (or x82 (or (or x99 (or x134 x49)) x131))) (and (or (or (or (or x64 x157) x63) x67) x85) (or (or x16 (or x42 (or x80 x41))) x85))))))))))
(assert (not (and (and (= x125 (x87 x37 x56)) (and (= x37 (x87 x121 x102)) (= x56 (x87 x121 x121)))) (= (x87 x56 x121) x102))))
(assert (not (and (and (and (= (x87 x37 x37) x102) (= (x87 x37 x56) x121)) (= (x87 x121 x102) x125)) (= (x87 x102 x37) x56))))
(assert (not (and (= x121 (x87 x102 x125)) (and (= x37 (x87 x56 x102)) (and (= (x87 x125 x121) x56) (= x102 (x87 x125 x125)))))))
(assert (not (and (= (x87 x102 x121) x125) (and (and (= (x87 x121 x125) x56) (= (x87 x121 x121) x102)) (= x37 (x87 x56 x102))))))
(assert (not (and (and (and (= x56 (x87 x125 x125)) (= x37 (x87 x125 x102))) (= (x87 x37 x56) x121)) (= (x87 x56 x125) x102))))
(assert (let ((x140 (x87 x121 x121)) (x7 (x87 x37 x37)) (x81 (x87 x125 x125)) (x113 (x87 x56 x56)) (x60 (x87 x102 x102))) (or (and (not (= x37 x7)) (and (not (= x140 x37)) (and (and (not (= x60 x37)) (not (= x37 x113))) (not (= x37 x81))))) (or (or (and (not (= x125 x7)) (and (and (and (not (= x125 x60)) (not (= x113 x125))) (not (= x125 x81))) (not (= x125 x140)))) (or (and (not (= x7 x56)) (and (and (not (= x81 x56)) (and (not (= x113 x56)) (not (= x56 x60)))) (not (= x140 x56)))) (and (and (and (not (= x102 x81)) (and (not (= x102 x60)) (not (= x113 x102)))) (not (= x140 x102))) (not (= x102 x7))))) (and (not (= x121 x7)) (and (not (= x140 x121)) (and (not (= x121 x81)) (and (not (= x60 x121)) (not (= x121 x113))))))))))
(assert (not (and (= (x87 x37 x102) x125) (and (= x121 (x87 x56 x37)) (and (= (x87 x102 x102) x37) (= (x87 x102 x125) x56))))))
(assert (not (and (= (x87 x121 x102) x37) (and (= (x87 x56 x121) x125) (and (= (x87 x102 x102) x121) (= (x87 x102 x37) x56))))))
(assert (not (and (and (and (= x121 (x87 x102 x102)) (= x125 (x87 x102 x37))) (= (x87 x125 x121) x56)) (= (x87 x121 x102) x37))))
(assert (not (and (and (and (= x102 (x87 x125 x37)) (= x121 (x87 x125 x125))) (= (x87 x102 x121) x56)) (= (x87 x121 x125) x37))))
(assert (not (and (and (= (x87 x56 x125) x102) (and (= x125 (x87 x121 x121)) (= x56 (x87 x121 x37)))) (= (x87 x125 x121) x37))))
(assert (not (and (= x121 (x87 x56 x125)) (and (and (= (x87 x125 x121) x102) (= x56 (x87 x125 x125))) (= x37 (x87 x102 x56))))))
(assert (not (and (and (and (= x56 (x87 x37 x37)) (= x125 (x87 x37 x121))) (= x102 (x87 x125 x56))) (= x121 (x87 x56 x37)))))
(assert (not (and (and (= x37 (x87 x121 x102)) (and (= (x87 x56 x56) x102) (= (x87 x56 x125) x121))) (= (x87 x102 x56) x125))))
(assert (not (and (= (x87 x56 x37) x121) (and (and (= x102 (x87 x37 x121)) (= (x87 x37 x37) x56)) (= x125 (x87 x102 x56))))))
(assert (not (and (= x125 (x87 x121 x37)) (and (and (= (x87 x37 x125) x56) (= x121 (x87 x37 x37))) (= x102 (x87 x56 x121))))))
(assert (not (and (and (= x37 (x87 x56 x121)) (and (= x56 (x87 x125 x102)) (= (x87 x125 x125) x121))) (= (x87 x121 x125) x102))))
(assert (not (and (and (= (x87 x56 x102) x125) (and (= x102 (x87 x37 x37)) (= (x87 x37 x121) x56))) (= (x87 x102 x37) x121))))
(assert (not (and (and (= x102 (x87 x37 x121)) (and (= x121 (x87 x56 x56)) (= x37 (x87 x56 x125)))) (= x125 (x87 x121 x56)))))
(assert (not (and (and (= (x87 x37 x121) x56) (and (= (x87 x102 x125) x37) (= x121 (x87 x102 x102)))) (= x125 (x87 x121 x102)))))
(assert (not (and (and (= x121 (x87 x125 x102)) (and (= x125 (x87 x37 x56)) (= x102 (x87 x37 x37)))) (= (x87 x102 x37) x56))))
(assert (not (and (and (and (= (x87 x121 x121) x56) (= (x87 x121 x37) x102)) (= (x87 x102 x56) x125)) (= x37 (x87 x56 x121)))))
(assert (not (and (and (and (= x121 (x87 x125 x56)) (= x102 (x87 x125 x125))) (= (x87 x121 x102) x37)) (= x56 (x87 x102 x125)))))
(assert (not (and (and (and (= (x87 x37 x37) x125) (= (x87 x37 x121) x56)) (= x102 (x87 x56 x125))) (= x121 (x87 x125 x37)))))
(assert (not (and (and (and (= x37 (x87 x56 x102)) (= x125 (x87 x56 x56))) (= (x87 x37 x125) x121)) (= (x87 x125 x56) x102))))
(assert (not (and (and (and (= x56 (x87 x102 x125)) (= x121 (x87 x102 x102))) (= (x87 x56 x121) x37)) (= (x87 x121 x102) x125))))
(assert (not (and (and (= x102 (x87 x56 x121)) (and (= (x87 x125 x37) x56) (= (x87 x125 x125) x121))) (= (x87 x121 x125) x37))))
(assert (not (and (and (and (= x125 (x87 x56 x102)) (= x121 (x87 x56 x56))) (= (x87 x125 x121) x37)) (= (x87 x121 x56) x102))))
(assert (not (and (and (= (x87 x56 x102) x121) (and (= x56 (x87 x125 x37)) (= x102 (x87 x125 x125)))) (= (x87 x102 x125) x37))))
(assert (not (and (= x121 (x87 x56 x125)) (and (= (x87 x37 x56) x102) (and (= x56 (x87 x125 x125)) (= (x87 x125 x121) x37))))))
(assert (not (and (and (and (= (x87 x121 x121) x102) (= x37 (x87 x121 x125))) (= x56 (x87 x37 x102))) (= (x87 x102 x121) x125))))
(assert (not (and (and (= x102 (x87 x37 x125)) (and (= x125 (x87 x121 x121)) (= (x87 x121 x56) x37))) (= (x87 x125 x121) x56))))
(assert (not (and (and (= x121 (x87 x56 x125)) (and (= x56 (x87 x102 x37)) (= (x87 x102 x102) x125))) (= x37 (x87 x125 x102)))))
(assert (not (and (and (= x37 (x87 x125 x121)) (and (= x125 (x87 x102 x56)) (= x121 (x87 x102 x102)))) (= x56 (x87 x121 x102)))))
(assert (let ((x17 (x87 x125 x56)) (x90 (x87 x121 x125)) (x126 (x87 x56 x125)) (x36 (x87 x121 x56)) (x40 (x87 x121 x37)) (x7 (x87 x102 x37)) (x21 (x87 x56 x37)) (x100 (x87 x125 x125)) (x94 (x87 x37 x102)) (x51 (x87 x125 x102)) (x140 (x87 x102 x121)) (x104 (x87 x125 x121)) (x62 (x87 x121 x121)) (x107 (x87 x37 x56)) (x5 (x87 x121 x102)) (x73 (x87 x37 x121)) (x101 (x87 x125 x37)) (x60 (x87 x102 x102)) (x86 (x87 x56 x102)) (x13 (x87 x56 x121)) (x14 (x87 x37 x125)) (x81 (x87 x102 x125)) (x19 (x87 x56 x56)) (x113 (x87 x102 x56)) (x114 (x87 x37 x37))) (and (and (and (and (and (and (and (and (or (or (or (= x60 x125) (or (= x60 x56) (= x60 x102))) (= x121 x60)) (= x60 x37)) (or (= x113 x37) (or (= x121 x113) (or (= x113 x125) (or (= x113 x102) (= x56 x113)))))) (or (or (or (= x81 x125) (or (= x81 x56) (= x102 x81))) (= x121 x81)) (= x37 x81))) (or (or (or (= x125 x140) (or (= x140 x102) (= x140 x56))) (= x140 x121)) (= x140 x37))) (or (= x7 x37) (or (or (= x125 x7) (or (= x56 x7) (= x102 x7))) (= x7 x121)))) (and (or (= x21 x37) (or (= x121 x21) (or (or (= x21 x56) (= x21 x102)) (= x125 x21)))) (and (and (or (or (= x121 x126) (or (= x125 x126) (or (= x126 x56) (= x102 x126)))) (= x37 x126)) (and (or (= x37 x19) (or (= x121 x19) (or (= x125 x19) (or (= x19 x102) (= x19 x56))))) (or (= x86 x37) (or (= x86 x121) (or (= x86 x125) (or (= x86 x102) (= x56 x86))))))) (or (or (= x121 x13) (or (= x125 x13) (or (= x56 x13) (= x102 x13)))) (= x13 x37))))) (and (or (or (or (= x125 x101) (or (= x102 x101) (= x101 x56))) (= x101 x121)) (= x37 x101)) (and (or (= x104 x37) (or (= x121 x104) (or (= x104 x125) (or (= x56 x104) (= x102 x104))))) (and (or (or (= x121 x100) (or (or (= x100 x56) (= x102 x100)) (= x100 x125))) (= x100 x37)) (and (or (or (or (or (= x17 x56) (= x17 x102)) (= x125 x17)) (= x17 x121)) (= x37 x17)) (or (= x37 x51) (or (or (= x51 x125) (or (= x56 x51) (= x51 x102))) (= x121 x51)))))))) (and (and (and (and (or (or (= x121 x36) (or (= x125 x36) (or (= x36 x102) (= x56 x36)))) (= x36 x37)) (or (or (= x121 x5) (or (= x5 x125) (or (= x5 x102) (= x5 x56)))) (= x37 x5))) (or (= x90 x37) (or (= x90 x121) (or (or (= x90 x56) (= x102 x90)) (= x125 x90))))) (or (= x62 x37) (or (or (or (= x62 x56) (= x62 x102)) (= x125 x62)) (= x62 x121)))) (or (= x40 x37) (or (or (= x125 x40) (or (= x40 x102) (= x56 x40))) (= x121 x40))))) (and (and (and (or (or (or (= x125 x14) (or (= x56 x14) (= x102 x14))) (= x121 x14)) (= x37 x14)) (and (or (or (= x121 x94) (or (= x94 x125) (or (= x94 x102) (= x94 x56)))) (= x37 x94)) (or (or (= x121 x107) (or (or (= x107 x102) (= x56 x107)) (= x125 x107))) (= x37 x107)))) (or (= x73 x37) (or (= x121 x73) (or (= x73 x125) (or (= x56 x73) (= x102 x73)))))) (or (= x114 x37) (or (or (or (= x56 x114) (= x114 x102)) (= x114 x125)) (= x121 x114)))))))
(assert (not (and (and (and (= (x87 x102 x102) x56) (= (x87 x102 x121) x37)) (= x125 (x87 x37 x56))) (= x121 (x87 x56 x102)))))
(assert (not (and (= (x87 x37 x102) x121) (and (= x56 (x87 x125 x37)) (and (= (x87 x102 x121) x125) (= x37 (x87 x102 x102)))))))
(assert (not (and (= (x87 x37 x121) x56) (and (= (x87 x125 x37) x102) (and (= (x87 x121 x56) x125) (= (x87 x121 x121) x37))))))
(assert (not (and (= x102 (x87 x37 x125)) (and (and (= x56 (x87 x125 x102)) (= x37 (x87 x125 x125))) (= (x87 x56 x37) x121)))))
(assert (not (and (and (= (x87 x102 x37) x56) (and (= x37 (x87 x121 x121)) (= x102 (x87 x121 x125)))) (= (x87 x37 x121) x125))))
(assert (not (and (= x121 (x87 x125 x102)) (and (= x37 (x87 x56 x125)) (and (= x125 (x87 x102 x102)) (= x56 (x87 x102 x121)))))))
(assert (not (and (= (x87 x121 x37) x56) (and (and (= x121 (x87 x37 x37)) (= (x87 x37 x56) x102)) (= (x87 x102 x121) x125)))))
(assert (not (and (and (= (x87 x121 x37) x56) (and (= x37 (x87 x102 x102)) (= (x87 x102 x125) x121))) (= (x87 x37 x102) x125))))
(assert (not (and (= (x87 x37 x56) x125) (and (and (= (x87 x56 x125) x102) (= (x87 x56 x56) x37)) (= x121 (x87 x102 x37))))))
(assert (not (and (= (x87 x121 x37) x102) (and (and (= x121 (x87 x37 x37)) (= x125 (x87 x37 x102))) (= (x87 x125 x121) x56)))))
(assert (not (and (and (and (= x37 (x87 x56 x56)) (= (x87 x56 x121) x102)) (= x125 (x87 x102 x37))) (= (x87 x37 x56) x121))))
(assert (not (and (= (x87 x56 x121) x125) (and (and (= x37 (x87 x121 x125)) (= (x87 x121 x121) x56)) (= x102 (x87 x37 x56))))))
(assert (not (and (and (= (x87 x121 x125) x56) (and (= (x87 x102 x37) x121) (= x125 (x87 x102 x102)))) (= x37 (x87 x125 x102)))))
(assert (not (and (= (x87 x102 x121) x56) (and (and (= x37 (x87 x121 x56)) (= (x87 x121 x121) x102)) (= (x87 x37 x102) x125)))))
(assert (not (and (and (and (= x37 (x87 x121 x121)) (= x125 (x87 x121 x102))) (= x56 (x87 x125 x37))) (= (x87 x37 x121) x102))))
(assert (not (and (= (x87 x56 x125) x102) (and (= (x87 x121 x56) x37) (and (= (x87 x125 x102) x121) (= (x87 x125 x125) x56))))))
(assert (not (and (and (and (= x121 (x87 x102 x56)) (= x37 (x87 x102 x102))) (= x125 (x87 x121 x37))) (= (x87 x37 x102) x56))))
(assert (not (and (and (= x56 (x87 x102 x37)) (and (= x37 (x87 x125 x125)) (= x102 (x87 x125 x121)))) (= (x87 x37 x125) x121))))
(assert (not (and (= (x87 x102 x37) x125) (and (and (= x102 (x87 x37 x37)) (= x121 (x87 x37 x125))) (= (x87 x121 x102) x56)))))
(assert (not (and (= x125 (x87 x56 x121)) (and (= x37 (x87 x102 x56)) (and (= x56 (x87 x121 x121)) (= (x87 x121 x125) x102))))))
(assert (not (and (= x56 (x87 x102 x125)) (and (and (= x102 (x87 x125 x125)) (= (x87 x125 x56) x37)) (= x121 (x87 x37 x102))))))
(assert (let ((x94 (x87 x102 x37)) (x101 (x87 x37 x125)) (x13 (x87 x121 x56)) (x7 (x87 x37 x102)) (x104 (x87 x121 x125)) (x19 (x87 x56 x56)) (x113 (x87 x56 x102)) (x73 (x87 x121 x37)) (x100 (x87 x125 x125)) (x140 (x87 x121 x102)) (x5 (x87 x102 x121)) (x17 (x87 x56 x125)) (x114 (x87 x37 x37)) (x51 (x87 x102 x125)) (x60 (x87 x102 x102)) (x40 (x87 x37 x121)) (x86 (x87 x102 x56)) (x81 (x87 x125 x102)) (x126 (x87 x125 x56)) (x62 (x87 x121 x121)) (x36 (x87 x56 x121)) (x14 (x87 x125 x37)) (x21 (x87 x37 x56)) (x107 (x87 x56 x37)) (x90 (x87 x125 x121))) (and (and (and (and (and (and (and (and (not (= x51 x5)) (and (not (= x94 x86)) (and (not (= x5 x86)) (and (not (= x51 x86)) (and (and (not (= x60 x5)) (and (not (= x86 x60)) (not (= x60 x51)))) (not (= x60 x94))))))) (not (= x51 x94))) (not (= x5 x94))) (and (not (= x36 x107)) (and (and (and (and (and (and (and (and (not (= x17 x113)) (not (= x19 x113))) (not (= x113 x36))) (not (= x107 x113))) (not (= x19 x17))) (not (= x36 x19))) (not (= x107 x19))) (not (= x17 x36))) (not (= x107 x17))))) (and (not (= x14 x90)) (and (not (= x14 x100)) (and (not (= x90 x100)) (and (and (not (= x126 x90)) (and (not (= x126 x100)) (and (and (not (= x81 x90)) (and (not (= x81 x126)) (not (= x81 x100)))) (not (= x14 x81))))) (not (= x14 x126))))))) (and (not (= x62 x73)) (and (and (not (= x104 x62)) (and (and (not (= x13 x62)) (and (and (not (= x140 x73)) (and (not (= x140 x62)) (and (not (= x13 x140)) (not (= x140 x104))))) (not (= x104 x13)))) (not (= x13 x73)))) (not (= x104 x73))))) (and (and (not (= x114 x101)) (and (and (and (not (= x40 x21)) (and (and (and (and (not (= x7 x101)) (not (= x7 x21))) (not (= x40 x7))) (not (= x114 x7))) (not (= x101 x21)))) (not (= x21 x114))) (not (= x40 x101)))) (not (= x114 x40)))) (and (and (and (and (and (and (and (not (= x101 x17)) (and (and (and (not (= x101 x51)) (and (not (= x51 x104)) (and (not (= x100 x51)) (not (= x17 x51))))) (not (= x17 x100))) (not (= x17 x104)))) (not (= x104 x100))) (not (= x101 x100))) (not (= x101 x104))) (and (and (not (= x13 x21)) (and (not (= x21 x126)) (and (not (= x13 x126)) (and (not (= x21 x19)) (and (and (not (= x126 x19)) (and (not (= x21 x86)) (and (and (not (= x19 x86)) (not (= x126 x86))) (not (= x86 x13))))) (not (= x13 x19))))))) (and (not (= x7 x140)) (and (and (not (= x140 x81)) (and (not (= x7 x113)) (and (and (and (and (not (= x140 x60)) (and (not (= x81 x60)) (not (= x113 x60)))) (not (= x7 x60))) (not (= x81 x113))) (not (= x113 x140))))) (not (= x7 x81)))))) (and (and (and (not (= x90 x62)) (and (and (and (not (= x90 x36)) (and (and (not (= x5 x62)) (and (not (= x90 x5)) (not (= x36 x5)))) (not (= x5 x40)))) (not (= x36 x62))) (not (= x40 x36)))) (not (= x40 x90))) (not (= x40 x62)))) (and (not (= x73 x114)) (and (not (= x14 x114)) (and (not (= x73 x14)) (and (not (= x107 x114)) (and (not (= x73 x107)) (and (not (= x14 x107)) (and (not (= x94 x114)) (and (and (not (= x94 x107)) (not (= x94 x14))) (not (= x73 x94))))))))))))))
(assert (not (and (and (= x102 (x87 x125 x121)) (and (= x125 (x87 x37 x56)) (= x121 (x87 x37 x37)))) (= (x87 x121 x37) x56))))
(assert (not (and (and (= (x87 x56 x37) x125) (and (= (x87 x102 x121) x56) (= x37 (x87 x102 x102)))) (= (x87 x37 x102) x121))))
(assert (not (and (= x102 (x87 x125 x37)) (and (= x56 (x87 x121 x125)) (and (= x121 (x87 x37 x102)) (= x125 (x87 x37 x37)))))))
(assert (not (and (= (x87 x125 x37) x121) (and (and (= x125 (x87 x37 x37)) (= x102 (x87 x37 x121))) (= (x87 x102 x125) x56)))))
(assert (not (and (and (= x102 (x87 x125 x37)) (and (= x37 (x87 x56 x56)) (= x125 (x87 x56 x121)))) (= x121 (x87 x37 x56)))))
(assert (or (or (= x121 (x87 x121 x121)) (or (or (= x102 (x87 x102 x102)) (= (x87 x56 x56) x56)) (= x125 (x87 x125 x125)))) (= x37 (x87 x37 x37))))
(assert (not (and (= (x87 x56 x102) x37) (and (= x121 (x87 x125 x56)) (and (= (x87 x102 x102) x56) (= (x87 x102 x37) x125))))))
(assert (not (and (= x121 (x87 x102 x56)) (and (and (= x125 (x87 x56 x121)) (= (x87 x56 x56) x102)) (= x37 (x87 x125 x102))))))
(assert (not (and (= x56 (x87 x37 x102)) (and (and (= x37 (x87 x102 x102)) (= x125 (x87 x102 x56))) (= x121 (x87 x125 x37))))))
(assert (not (and (= x56 (x87 x125 x102)) (and (= (x87 x121 x125) x37) (and (= x125 (x87 x102 x102)) (= (x87 x102 x56) x121))))))
(assert (not (and (= (x87 x56 x37) x125) (and (= (x87 x102 x56) x121) (and (= (x87 x37 x37) x56) (= x102 (x87 x37 x125)))))))
(assert (not (and (= (x87 x121 x125) x56) (and (= x102 (x87 x37 x121)) (and (= x121 (x87 x125 x125)) (= (x87 x125 x56) x37))))))
(assert (not (and (= x121 (x87 x125 x56)) (and (= x37 (x87 x102 x125)) (and (= x102 (x87 x56 x121)) (= x125 (x87 x56 x56)))))))
(assert (not (and (= (x87 x125 x56) x37) (and (and (= (x87 x56 x37) x102) (= (x87 x56 x56) x125)) (= x121 (x87 x102 x125))))))
(assert (not (and (= x121 (x87 x125 x102)) (and (and (= (x87 x102 x121) x37) (= (x87 x102 x102) x125)) (= x56 (x87 x37 x125))))))
(assert (not (and (= (x87 x56 x121) x37) (and (and (= x56 (x87 x121 x121)) (= x125 (x87 x121 x37))) (= x102 (x87 x125 x56))))))
(assert (not (and (and (and (= (x87 x125 x125) x37) (= x121 (x87 x125 x56))) (= x102 (x87 x121 x37))) (= (x87 x37 x125) x56))))
(assert (not (and (and (and (= (x87 x125 x125) x121) (= (x87 x125 x56) x102)) (= x37 (x87 x102 x121))) (= (x87 x121 x125) x56))))
(assert (not (and (= (x87 x56 x102) x125) (and (= (x87 x37 x56) x121) (and (= x37 (x87 x102 x125)) (= (x87 x102 x102) x56))))))
(assert (let ((x25 (x87 x37 x102)) (x136 (x87 x56 x102)) (x3 (x87 x37 x125)) (x120 (x87 x125 x37)) (x155 (x87 x125 x125)) (x124 (x87 x102 x121)) (x4 (x87 x125 x56)) (x147 (x87 x102 x102)) (x149 (x87 x102 x125)) (x38 (x87 x56 x121)) (x103 (x87 x121 x121)) (x53 (x87 x56 x37)) (x69 (x87 x125 x102)) (x93 (x87 x56 x125)) (x108 (x87 x102 x37)) (x72 (x87 x102 x56)) (x123 (x87 x121 x102)) (x106 (x87 x37 x121)) (x32 (x87 x125 x121)) (x83 (x87 x121 x56)) (x112 (x87 x56 x56)) (x66 (x87 x37 x56)) (x132 (x87 x121 x37)) (x24 (x87 x121 x125)) (x146 (x87 x37 x37))) (let ((x97 (= x112 x125)) (x137 (= x147 x37)) (x62 (= x66 x102)) (x39 (= x125 x4)) (x12 (= x24 x37)) (x153 (= x83 x37)) (x143 (= x72 x37)) (x150 (= x37 x25)) (x133 (= x125 x108)) (x139 (= x149 x125)) (x57 (= x72 x125)) (x79 (= x56 x146)) (x91 (= x155 x56)) (x10 (= x112 x56)) (x9 (= x103 x125)) (x18 (= x121 x155)) (x19 (= x4 x102)) (x31 (= x93 x37)) (x145 (= x123 x121)) (x154 (= x37 x149)) (x148 (= x53 x37)) (x92 (= x56 x83)) (x67 (= x121 x120)) (x116 (= x83 x125)) (x65 (= x37 x146)) (x41 (= x121 x32)) (x1 (= x103 x37)) (x13 (= x102 x155)) (x61 (= x66 x125)) (x26 (= x66 x37)) (x85 (= x106 x121)) (x54 (= x125 x25)) (x21 (= x123 x102)) (x48 (= x136 x125)) (x135 (= x56 x25)) (x88 (= x32 x56)) (x64 (= x121 x53)) (x14 (= x106 x102)) (x16 (= x121 x25)) (x77 (= x3 x125)) (x34 (= x37 x136)) (x142 (= x37 x155)) (x144 (= x125 x24)) (x33 (= x125 x146)) (x2 (= x123 x37)) (x113 (= x136 x102)) (x111 (= x56 x124)) (x6 (= x132 x37)) (x45 (= x108 x37)) (x8 (= x38 x56)) (x44 (= x125 x155)) (x127 (= x93 x125)) (x129 (= x56 x69)) (x84 (= x124 x121)) (x76 (= x56 x120)) (x90 (= x108 x102)) (x58 (= x56 x24)) (x118 (= x125 x132)) (x134 (= x121 x149)) (x98 (= x125 x147)) (x122 (= x125 x53)) (x28 (= x56 x4)) (x82 (= x38 x121)) (x7 (= x102 x69)) (x86 (= x102 x149)) (x17 (= x83 x102)) (x131 (= x121 x93)) (x35 (= x106 x37)) (x36 (= x102 x25)) (x42 (= x121 x103)) (x75 (= x132 x56)) (x130 (= x37 x3)) (x50 (= x124 x37)) (x100 (= x38 x102)) (x11 (= x56 x108)) (x22 (= x38 x125)) (x152 (= x149 x56)) (x63 (= x121 x3)) (x156 (= x32 x125)) (x55 (= x3 x56)) (x81 (= x72 x102)) (x128 (= x93 x56)) (x107 (= x102 x120)) (x40 (= x53 x102)) (x141 (= x56 x53)) (x140 (= x112 x102)) (x71 (= x120 x125)) (x114 (= x102 x146)) (x60 (= x147 x102)) (x68 (= x69 x37)) (x119 (= x121 x72)) (x27 (= x112 x121)) (x15 (= x121 x108)) (x138 (= x132 x121)) (x70 (= x121 x136)) (x126 (= x102 x93)) (x78 (= x56 x136)) (x151 (= x106 x56)) (x95 (= x37 x38)) (x47 (= x69 x125)) (x43 (= x147 x56)) (x105 (= x37 x112)) (x73 (= x102 x132)) (x74 (= x37 x120)) (x101 (= x102 x32)) (x158 (= x103 x56)) (x94 (= x102 x3)) (x80 (= x121 x24)) (x59 (= x56 x72)) (x46 (= x123 x125)) (x117 (= x37 x32)) (x23 (= x121 x146)) (x29 (= x147 x121)) (x99 (= x121 x4)) (x30 (= x4 x37)) (x51 (= x124 x102)) (x5 (= x102 x103)) (x110 (= x125 x124)) (x104 (= x24 x102)) (x115 (= x56 x66)) (x49 (= x69 x121)) (x96 (= x56 x123)) (x89 (= x125 x106)) (x52 (= x83 x121)) (x157 (= x66 x121))) (and (and (or (or (and x23 x23) (or (or (or (and x157 x64) (and x16 x15)) (and x63 x67)) (and x85 x138))) (or (or (or (or (or (or (and x131 x99) (or (and x119 x70) (and x27 x27))) (and x52 x82)) (and x64 x157)) (or (or (or (or (and x29 x29) (and x70 x119)) (and x134 x49)) (and x145 x84)) (and x16 x15))) (or (or (or (and x18 x18) (or (and x134 x49) (and x131 x99))) (and x41 x80)) (and x63 x67))) (or (and x85 x138) (or (and x42 x42) (or (or (and x82 x52) (and x145 x84)) (and x80 x41)))))) (and (and (or (or (or (or (or (or (and x96 x111) (and x92 x8)) (and x58 x88)) (and x158 x158)) (and x151 x75)) (or (or (or (or (or (and x128 x28) (or (and x10 x10) (and x59 x78))) (and x92 x8)) (and x141 x115)) (or (or (or (or (and x78 x59) (and x43 x43)) (and x129 x152)) (and x111 x96)) (and x135 x11))) (or (or (and x58 x88) (or (or (and x129 x152) (and x128 x28)) (and x91 x91))) (and x76 x55)))) (or (and x79 x79) (or (and x151 x75) (or (or (and x115 x141) (and x135 x11)) (and x76 x55))))) (or (or (and x114 x114) (or (and x14 x73) (or (or (and x90 x36) (and x40 x62)) (and x107 x94)))) (or (or (and x14 x73) (or (and x5 x5) (or (and x104 x101) (or (and x17 x100) (and x51 x21))))) (or (or (or (and x90 x36) (or (or (and x86 x7) (or (and x113 x81) (and x60 x60))) (and x21 x51))) (or (and x40 x62) (or (and x100 x17) (or (or (and x113 x81) (and x140 x140)) (and x19 x126))))) (or (or (or (and x13 x13) (or (and x86 x7) (and x19 x126))) (and x101 x104)) (and x107 x94)))))) (or (or (or (and x89 x118) (or (and x9 x9) (or (or (and x116 x22) (and x110 x46)) (and x144 x156)))) (or (or (or (or (or (or (and x57 x48) (and x98 x98)) (and x139 x47)) (and x110 x46)) (and x54 x133)) (or (and x122 x61) (or (and x22 x116) (or (and x127 x39) (or (and x97 x97) (and x57 x48)))))) (or (and x71 x77) (or (or (or (and x127 x39) (and x47 x139)) (and x44 x44)) (and x156 x144))))) (or (and x33 x33) (or (or (or (and x133 x54) (and x61 x122)) (and x71 x77)) (and x89 x118)))))) (or (or (or (or (or (or (or (or (and x34 x143) (and x105 x105)) (and x30 x31)) (and x95 x153)) (and x26 x148)) (or (and x45 x150) (or (and x2 x50) (or (or (and x34 x143) (and x137 x137)) (and x154 x68))))) (or (and x130 x74) (or (and x117 x12) (or (or (and x154 x68) (and x30 x31)) (and x142 x142))))) (or (or (or (and x117 x12) (or (and x50 x2) (and x153 x95))) (and x1 x1)) (and x35 x6))) (or (and x65 x65) (or (and x35 x6) (or (or (and x150 x45) (and x148 x26)) (and x74 x130)))))))))
(assert (not (and (and (= (x87 x102 x56) x121) (and (= (x87 x125 x37) x102) (= (x87 x125 x125) x56))) (= (x87 x56 x125) x37))))
(assert (not (and (= x37 (x87 x121 x56)) (and (= x102 (x87 x125 x121)) (and (= x121 (x87 x56 x56)) (= (x87 x56 x37) x125))))))
(assert (not (and (and (= (x87 x125 x56) x121) (and (= x56 (x87 x37 x37)) (= x125 (x87 x37 x102)))) (= (x87 x56 x37) x102))))
(assert (not (and (and (and (= x37 (x87 x125 x125)) (= x121 (x87 x125 x102))) (= x56 (x87 x121 x37))) (= x102 (x87 x37 x125)))))
(assert (not (and (= x56 (x87 x37 x121)) (and (= (x87 x102 x37) x125) (and (= x102 (x87 x121 x56)) (= (x87 x121 x121) x37))))))
(assert (not (and (= x37 (x87 x102 x121)) (and (and (= (x87 x121 x121) x102) (= (x87 x121 x37) x56)) (= (x87 x56 x102) x125)))))
(assert (not (and (and (and (= (x87 x125 x125) x56) (= x121 (x87 x125 x37))) (= x102 (x87 x121 x56))) (= (x87 x56 x125) x37))))
(assert (not (and (and (= (x87 x125 x102) x37) (and (= x102 (x87 x121 x121)) (= x125 (x87 x121 x56)))) (= (x87 x102 x121) x56))))
(assert (not (and (and (= x102 (x87 x121 x37)) (and (= x37 (x87 x56 x56)) (= x121 (x87 x56 x125)))) (= (x87 x37 x56) x125))))
(assert (and (not (= x121 x37)) (and (and (and (and (and (not (= x125 x56)) (and (and (and (not (= x125 x102)) (not (= x56 x102))) (not (= x102 x121))) (not (= x37 x102)))) (not (= x121 x56))) (not (= x56 x37))) (not (= x125 x121))) (not (= x125 x37)))))
(assert (not (and (= x125 (x87 x37 x121)) (and (and (= (x87 x121 x125) x56) (= (x87 x121 x121) x37)) (= x102 (x87 x56 x37))))))
(assert (not (and (and (= x102 (x87 x121 x125)) (and (= (x87 x56 x56) x125) (= (x87 x56 x37) x121))) (= (x87 x125 x56) x37))))
(assert (not (and (and (and (= (x87 x121 x102) x56) (= x125 (x87 x121 x121))) (= (x87 x56 x125) x37)) (= x102 (x87 x125 x121)))))
(assert (not (and (and (and (= x121 (x87 x102 x37)) (= x56 (x87 x102 x102))) (= x125 (x87 x121 x56))) (= x37 (x87 x56 x102)))))
(assert (not (and (and (and (= x56 (x87 x37 x102)) (= x121 (x87 x37 x37))) (= (x87 x56 x121) x125)) (= x102 (x87 x121 x37)))))
(assert (not (and (and (= x56 (x87 x102 x121)) (and (= x102 (x87 x37 x125)) (= x121 (x87 x37 x37)))) (= x125 (x87 x121 x37)))))
(assert (not (and (= x37 (x87 x102 x56)) (and (= (x87 x125 x102) x121) (and (= (x87 x56 x37) x125) (= x102 (x87 x56 x56)))))))
(assert (not (and (= x56 (x87 x125 x121)) (and (and (= (x87 x121 x56) x102) (= (x87 x121 x121) x125)) (= x37 (x87 x102 x125))))))
(assert (not (and (= (x87 x56 x102) x121) (and (and (= (x87 x102 x102) x56) (= (x87 x102 x121) x125)) (= x37 (x87 x125 x56))))))
(assert (not (and (and (and (= (x87 x56 x37) x102) (= (x87 x56 x56) x121)) (= x125 (x87 x102 x121))) (= x37 (x87 x121 x56)))))
(assert (not (and (= x125 (x87 x56 x37)) (and (= (x87 x121 x56) x102) (and (= (x87 x37 x37) x56) (= x121 (x87 x37 x125)))))))
(assert (not (and (and (= x125 (x87 x37 x121)) (and (= x37 (x87 x56 x102)) (= (x87 x56 x56) x121))) (= x102 (x87 x121 x56)))))
(assert (not (and (and (= x125 (x87 x37 x121)) (and (= x37 (x87 x102 x56)) (= (x87 x102 x102) x121))) (= x56 (x87 x121 x102)))))
(assert (let ((x60 (x87 x102 x102)) (x104 (x87 x121 x125)) (x13 (x87 x125 x125)) (x114 (x87 x37 x37)) (x17 (x87 x121 x56)) (x100 (x87 x56 x121)) (x140 (x87 x56 x56)) (x113 (x87 x56 x102)) (x101 (x87 x125 x121)) (x7 (x87 x125 x102)) (x5 (x87 x121 x121)) (x90 (x87 x102 x37)) (x19 (x87 x125 x56)) (x73 (x87 x121 x37)) (x21 (x87 x121 x102)) (x62 (x87 x37 x56)) (x14 (x87 x37 x121)) (x51 (x87 x102 x121)) (x81 (x87 x102 x56)) (x126 (x87 x56 x125)) (x40 (x87 x56 x37)) (x36 (x87 x37 x102)) (x107 (x87 x125 x37)) (x94 (x87 x37 x125)) (x86 (x87 x102 x125))) (and (and (and (or (or (or (not (= x13 x13)) (or (not (= x86 x7)) (not (= x19 x126)))) (not (= x101 x104))) (not (= x94 x107))) (and (or (not (= x36 x90)) (or (not (= x51 x21)) (or (or (not (= x60 x60)) (not (= x113 x81))) (not (= x86 x7))))) (or (or (not (= x100 x17)) (or (or (not (= x140 x140)) (not (= x113 x81))) (not (= x126 x19)))) (not (= x62 x40))))) (or (or (or (or (not (= x51 x21)) (not (= x17 x100))) (not (= x104 x101))) (not (= x5 x5))) (not (= x14 x73)))) (or (not (= x114 x114)) (or (or (not (= x94 x107)) (or (not (= x40 x62)) (not (= x36 x90)))) (not (= x14 x73)))))))
(assert (not (and (and (and (= (x87 x121 x102) x37) (= (x87 x121 x121) x125)) (= x56 (x87 x37 x125))) (= x102 (x87 x125 x121)))))
(assert (not (and (= (x87 x102 x125) x37) (and (= (x87 x121 x102) x56) (and (= (x87 x125 x37) x121) (= (x87 x125 x125) x102))))))
(assert (not (and (and (= (x87 x121 x37) x125) (and (= (x87 x56 x56) x37) (= (x87 x56 x102) x121))) (= x102 (x87 x37 x56)))))
(assert (not (and (and (and (= x102 (x87 x37 x37)) (= (x87 x37 x125) x56)) (= x121 (x87 x56 x102))) (= (x87 x102 x37) x125))))
(assert (not (and (= (x87 x125 x56) x102) (and (and (= (x87 x56 x102) x121) (= x125 (x87 x56 x56))) (= x37 (x87 x121 x125))))))
(assert (not (and (= x121 (x87 x37 x125)) (and (and (= (x87 x125 x121) x56) (= (x87 x125 x125) x37)) (= (x87 x56 x37) x102)))))
(assert (not (and (= x37 (x87 x125 x121)) (and (and (= x102 (x87 x121 x37)) (= x125 (x87 x121 x121))) (= x56 (x87 x102 x125))))))
(assert (not (and (and (and (= (x87 x56 x102) x125) (= x37 (x87 x56 x56))) (= (x87 x125 x37) x121)) (= (x87 x37 x56) x102))))
(assert (not (and (= x56 (x87 x37 x125)) (and (and (= x102 (x87 x125 x56)) (= x37 (x87 x125 x125))) (= (x87 x102 x37) x121)))))
(assert (not (and (= x121 (x87 x102 x37)) (and (and (= (x87 x37 x37) x102) (= x125 (x87 x37 x121))) (= (x87 x125 x102) x56)))))
(assert (not (and (and (and (= (x87 x37 x37) x56) (= (x87 x37 x102) x121)) (= (x87 x121 x56) x125)) (= (x87 x56 x37) x102))))
(assert (not (and (= x37 (x87 x102 x56)) (and (= (x87 x121 x102) x125) (and (= x121 (x87 x56 x37)) (= x102 (x87 x56 x56)))))))
(assert (not (and (and (and (= x102 (x87 x56 x56)) (= (x87 x56 x121) x37)) (= (x87 x37 x102) x125)) (= (x87 x102 x56) x121))))
(assert (not (and (and (= x121 (x87 x37 x125)) (and (= x37 (x87 x102 x56)) (= (x87 x102 x102) x125))) (= (x87 x125 x102) x56))))
(assert (not (and (= (x87 x102 x121) x37) (and (= x56 (x87 x125 x102)) (and (= x125 (x87 x121 x37)) (= x102 (x87 x121 x121)))))))
(assert (not (and (= x56 (x87 x125 x37)) (and (and (= (x87 x37 x56) x102) (= (x87 x37 x37) x125)) (= (x87 x102 x125) x121)))))
(assert (not (and (and (and (= (x87 x121 x121) x56) (= (x87 x121 x102) x125)) (= x37 (x87 x125 x56))) (= (x87 x56 x121) x102))))
(assert (not (and (and (and (= (x87 x37 x37) x125) (= (x87 x37 x56) x121)) (= (x87 x121 x125) x102)) (= (x87 x125 x37) x56))))
(assert (not (and (and (and (= x56 (x87 x121 x102)) (= x37 (x87 x121 x121))) (= (x87 x56 x37) x125)) (= x102 (x87 x37 x121)))))
(assert (not (and (and (= x56 (x87 x37 x121)) (and (= (x87 x125 x125) x121) (= (x87 x125 x102) x37))) (= x102 (x87 x121 x125)))))
(assert (not (and (and (= x37 (x87 x121 x56)) (and (= x121 (x87 x102 x125)) (= x56 (x87 x102 x102)))) (= x125 (x87 x56 x102)))))
(assert (not (and (= (x87 x125 x37) x102) (and (= (x87 x56 x125) x121) (and (= (x87 x37 x37) x125) (= (x87 x37 x102) x56))))))
(assert (not (and (= x125 (x87 x121 x56)) (and (= (x87 x102 x121) x37) (and (= (x87 x56 x56) x121) (= (x87 x56 x125) x102))))))
(assert (not (and (and (= (x87 x37 x102) x56) (and (= x102 (x87 x125 x125)) (= x37 (x87 x125 x121)))) (= (x87 x102 x125) x121))))
(assert (not (and (and (= x121 (x87 x37 x102)) (and (= x37 (x87 x56 x125)) (= x102 (x87 x56 x56)))) (= x125 (x87 x102 x56)))))
(assert (not (and (= (x87 x125 x56) x121) (and (and (= x125 (x87 x56 x56)) (= x37 (x87 x56 x121))) (= (x87 x37 x125) x102)))))
(check-sat)
(exit)
